min: c;

c = 3.58558542756528 * u5_t4_h2 + 3.58558542756528 * u5_t7_h2 + 2.80602645932525 * u5_t4_h3 + 2.80602645932525 * u5_t7_h3 + 2.79709974069074 * u5_t1_h4 + 2.79709974069074 * u5_t3_h4 + 2.79709974069074 * u5_t4_h4 + 2.79709974069074 * u5_t7_h4 + 3.651345248297 * u5_t1_h5 + 3.651345248297 * u5_t3_h5 + 3.651345248297 * u5_t4_h5 + 3.651345248297 * u5_t7_h5 + 3.69000658662899 * u5_t1_h6 + 3.69000658662899 * u5_t3_h6 + 3.69000658662899 * u5_t4_h6 + 3.69000658662899 * u5_t6_h6 + 3.69000658662899 * u5_t7_h6 + 4.39126149261543 * u5_t1_h7 + 4.39126149261543 * u5_t3_h7 + 4.39126149261543 * u5_t4_h7 + 4.39126149261543 * u5_t6_h7 + 5.24557133014845 * u5_t1_h8 + 5.24557133014845 * u5_t3_h8 + 5.24557133014845 * u5_t4_h8 + 5.24557133014845 * u5_t6_h8 + 5.36612983498387 * u5_t1_h9 + 5.36612983498387 * u5_t3_h9 + 5.36612983498387 * u5_t4_h9 + 5.36612983498387 * u5_t6_h9 + 5.35544979938682 * u5_t1_h10 + 5.35544979938682 * u5_t3_h10 + 5.35544979938682 * u5_t4_h10 + 5.35544979938682 * u5_t6_h10 + 3.68051548172425 * u5_t1_h11 + 3.68051548172425 * u5_t3_h11 + 3.68051548172425 * u5_t4_h11 + 3.68051548172425 * u5_t6_h11 + 6.34871020633966 * u5_t1_h12 + 6.34871020633966 * u5_t3_h12 + 6.34871020633966 * u5_t4_h12 + 6.34871020633966 * u5_t6_h12 + 4.90248327356746 * u5_t1_h13 + 4.90248327356746 * u5_t3_h13 + 4.90248327356746 * u5_t4_h13 + 4.90248327356746 * u5_t6_h13 + 4.90248327356746 * u5_t8_h13 + 5.47496328048363 * u5_t1_h14 + 5.47496328048363 * u5_t3_h14 + 5.47496328048363 * u5_t4_h14 + 5.47496328048363 * u5_t6_h14 + 5.47496328048363 * u5_t8_h14 + 6.19391234782061 * u5_t1_h15 + 6.19391234782061 * u5_t3_h15 + 6.19391234782061 * u5_t4_h15 + 6.19391234782061 * u5_t6_h15 + 6.19391234782061 * u5_t8_h15 + 6.19391234782061 * u5_t9_h15 + 5.45664070269905 * u5_t1_h16 + 5.45664070269905 * u5_t3_h16 + 5.45664070269905 * u5_t4_h16 + 5.45664070269905 * u5_t5_h16 + 5.45664070269905 * u5_t6_h16 + 5.45664070269905 * u5_t8_h16 + 5.45664070269905 * u5_t9_h16 + 6.36839496430016 * u5_t1_h17 + 6.36839496430016 * u5_t5_h17 + 6.36839496430016 * u5_t6_h17 + 6.36839496430016 * u5_t8_h17 + 6.36839496430016 * u5_t9_h17 + 6.36839496430016 * u5_t10_h17 + 6.81412967091106 * u5_t1_h18 + 6.81412967091106 * u5_t2_h18 + 6.81412967091106 * u5_t5_h18 + 6.81412967091106 * u5_t6_h18 + 6.81412967091106 * u5_t9_h18 + 6.81412967091106 * u5_t10_h18 + 5.70205554164985 * u5_t1_h19 + 5.70205554164985 * u5_t2_h19 + 5.70205554164985 * u5_t5_h19 + 5.70205554164985 * u5_t9_h19 + 5.70205554164985 * u5_t10_h19 + 5.14639728704968 * u5_t1_h20 + 5.14639728704968 * u5_t2_h20 + 5.14639728704968 * u5_t5_h20 + 5.14639728704968 * u5_t9_h20 + 5.14639728704968 * u5_t10_h20 + 5.5626135953505 * u5_t2_h21 + 5.5626135953505 * u5_t5_h21 + 5.5626135953505 * u5_t9_h21 + 5.5626135953505 * u5_t10_h21 + 5.16326535520788 * u5_t2_h22 + 5.16326535520788 * u5_t5_h22 + 5.16326535520788 * u5_t9_h22 + 5.16326535520788 * u5_t10_h22 + 5.93120402290145 * u5_t5_h23 + 5.93120402290145 * u5_t9_h23 + 5.93120402290145 * u5_t10_h23;
0 <= u5_t1_h4 <= 1;
0 <= u5_t1_h5 <= 1;
0 <= u5_t1_h6 <= 1;
0 <= u5_t1_h7 <= 1;
0 <= u5_t1_h8 <= 1;
0 <= u5_t1_h9 <= 1;
0 <= u5_t1_h10 <= 1;
0 <= u5_t1_h11 <= 1;
0 <= u5_t1_h12 <= 1;
0 <= u5_t1_h13 <= 1;
0 <= u5_t1_h14 <= 1;
0 <= u5_t1_h15 <= 1;
0 <= u5_t1_h16 <= 1;
0 <= u5_t1_h17 <= 1;
0 <= u5_t1_h18 <= 1;
0 <= u5_t1_h19 <= 1;
0 <= u5_t1_h20 <= 1;
u5_t1_h4 + u5_t1_h5 + u5_t1_h6 + u5_t1_h7 + u5_t1_h8 + u5_t1_h9 + u5_t1_h10 + u5_t1_h11 + u5_t1_h12 + u5_t1_h13 + u5_t1_h14 + u5_t1_h15 + u5_t1_h16 + u5_t1_h17 + u5_t1_h18 + u5_t1_h19 + u5_t1_h20 = 1;
0 <= u5_t2_h18 <= 1;
0 <= u5_t2_h19 <= 1;
0 <= u5_t2_h20 <= 1;
0 <= u5_t2_h21 <= 1;
0 <= u5_t2_h22 <= 1;
u5_t2_h18 + u5_t2_h19 + u5_t2_h20 + u5_t2_h21 + u5_t2_h22 = 3;
0 <= u5_t3_h4 <= 1;
0 <= u5_t3_h5 <= 1;
0 <= u5_t3_h6 <= 1;
0 <= u5_t3_h7 <= 1;
0 <= u5_t3_h8 <= 1;
0 <= u5_t3_h9 <= 1;
0 <= u5_t3_h10 <= 1;
0 <= u5_t3_h11 <= 1;
0 <= u5_t3_h12 <= 1;
0 <= u5_t3_h13 <= 1;
0 <= u5_t3_h14 <= 1;
0 <= u5_t3_h15 <= 1;
0 <= u5_t3_h16 <= 1;
u5_t3_h4 + u5_t3_h5 + u5_t3_h6 + u5_t3_h7 + u5_t3_h8 + u5_t3_h9 + u5_t3_h10 + u5_t3_h11 + u5_t3_h12 + u5_t3_h13 + u5_t3_h14 + u5_t3_h15 + u5_t3_h16 = 1;
0 <= u5_t4_h2 <= 1;
0 <= u5_t4_h3 <= 1;
0 <= u5_t4_h4 <= 1;
0 <= u5_t4_h5 <= 1;
0 <= u5_t4_h6 <= 1;
0 <= u5_t4_h7 <= 1;
0 <= u5_t4_h8 <= 1;
0 <= u5_t4_h9 <= 1;
0 <= u5_t4_h10 <= 1;
0 <= u5_t4_h11 <= 1;
0 <= u5_t4_h12 <= 1;
0 <= u5_t4_h13 <= 1;
0 <= u5_t4_h14 <= 1;
0 <= u5_t4_h15 <= 1;
0 <= u5_t4_h16 <= 1;
u5_t4_h2 + u5_t4_h3 + u5_t4_h4 + u5_t4_h5 + u5_t4_h6 + u5_t4_h7 + u5_t4_h8 + u5_t4_h9 + u5_t4_h10 + u5_t4_h11 + u5_t4_h12 + u5_t4_h13 + u5_t4_h14 + u5_t4_h15 + u5_t4_h16 = 3;
0 <= u5_t5_h16 <= 1;
0 <= u5_t5_h17 <= 1;
0 <= u5_t5_h18 <= 1;
0 <= u5_t5_h19 <= 1;
0 <= u5_t5_h20 <= 1;
0 <= u5_t5_h21 <= 1;
0 <= u5_t5_h22 <= 1;
0 <= u5_t5_h23 <= 1;
u5_t5_h16 + u5_t5_h17 + u5_t5_h18 + u5_t5_h19 + u5_t5_h20 + u5_t5_h21 + u5_t5_h22 + u5_t5_h23 = 2;
0 <= u5_t6_h6 <= 1;
0 <= u5_t6_h7 <= 1;
0 <= u5_t6_h8 <= 1;
0 <= u5_t6_h9 <= 1;
0 <= u5_t6_h10 <= 1;
0 <= u5_t6_h11 <= 1;
0 <= u5_t6_h12 <= 1;
0 <= u5_t6_h13 <= 1;
0 <= u5_t6_h14 <= 1;
0 <= u5_t6_h15 <= 1;
0 <= u5_t6_h16 <= 1;
0 <= u5_t6_h17 <= 1;
0 <= u5_t6_h18 <= 1;
u5_t6_h6 + u5_t6_h7 + u5_t6_h8 + u5_t6_h9 + u5_t6_h10 + u5_t6_h11 + u5_t6_h12 + u5_t6_h13 + u5_t6_h14 + u5_t6_h15 + u5_t6_h16 + u5_t6_h17 + u5_t6_h18 = 2;
0 <= u5_t7_h2 <= 1;
0 <= u5_t7_h3 <= 1;
0 <= u5_t7_h4 <= 1;
0 <= u5_t7_h5 <= 1;
0 <= u5_t7_h6 <= 1;
u5_t7_h2 + u5_t7_h3 + u5_t7_h4 + u5_t7_h5 + u5_t7_h6 = 1;
0 <= u5_t8_h13 <= 1;
0 <= u5_t8_h14 <= 1;
0 <= u5_t8_h15 <= 1;
0 <= u5_t8_h16 <= 1;
0 <= u5_t8_h17 <= 1;
u5_t8_h13 + u5_t8_h14 + u5_t8_h15 + u5_t8_h16 + u5_t8_h17 = 3;
0 <= u5_t9_h15 <= 1;
0 <= u5_t9_h16 <= 1;
0 <= u5_t9_h17 <= 1;
0 <= u5_t9_h18 <= 1;
0 <= u5_t9_h19 <= 1;
0 <= u5_t9_h20 <= 1;
0 <= u5_t9_h21 <= 1;
0 <= u5_t9_h22 <= 1;
0 <= u5_t9_h23 <= 1;
u5_t9_h15 + u5_t9_h16 + u5_t9_h17 + u5_t9_h18 + u5_t9_h19 + u5_t9_h20 + u5_t9_h21 + u5_t9_h22 + u5_t9_h23 = 1;
0 <= u5_t10_h17 <= 1;
0 <= u5_t10_h18 <= 1;
0 <= u5_t10_h19 <= 1;
0 <= u5_t10_h20 <= 1;
0 <= u5_t10_h21 <= 1;
0 <= u5_t10_h22 <= 1;
0 <= u5_t10_h23 <= 1;
u5_t10_h17 + u5_t10_h18 + u5_t10_h19 + u5_t10_h20 + u5_t10_h21 + u5_t10_h22 + u5_t10_h23 = 1;
